ETAPAS=4;
PALLETS=24;

A=[[0,0,1,0,0],[0,0,1,0,0],[0,0,1,0,0],[0,0,1,0,0],[0,0,1,0,0],[0,0,1,0,0],[0,0,1,0,0],[0,0,1,0,0],[0,0,1,0,0],[0,0,1,0,0],[0,0,1,0,0],[0,0,1,0,0],[0,1,0,0,0],[0,1,0,0,0],[0,1,0,0,0],[0,1,0,0,0],[0,1,0,0,0],[0,1,0,0,0],[0,1,0,0,0],[0,1,0,0,0],[0,1,0,0,0],[0,1,0,0,0],[0,1,0,0,0],[0,1,0,0,0]];
D=[[0,0,0,0,1],[0,0,0,0,1],[0,0,0,0,1],[0,0,0,0,1],[0,0,0,0,1],[0,0,0,0,1],[0,0,0,0,1],[0,0,0,0,1],[0,0,0,0,1],[0,0,0,0,1],[0,0,0,0,1],[0,0,0,0,1],[0,0,0,1,0],[0,0,0,1,0],[0,0,0,1,0],[0,0,0,1,0],[0,0,0,1,0],[0,0,0,1,0],[0,0,0,1,0],[0,0,0,1,0],[0,0,0,1,0],[0,0,0,1,0],[0,0,0,1,0],[0,0,0,1,0]];
Q=[[0,0,1,1,1],[0,0,1,1,1],[0,0,1,1,1],[0,0,1,1,1],[0,0,1,1,1],[0,0,1,1,1],[0,0,1,1,1],[0,0,1,1,1],[0,0,1,1,1],[0,0,1,1,1],[0,0,1,1,1],[0,0,1,1,1],[0,1,1,1,0],[0,1,1,1,0],[0,1,1,1,0],[0,1,1,1,0],[0,1,1,1,0],[0,1,1,1,0],[0,1,1,1,0],[0,1,1,1,0],[0,1,1,1,0],[0,1,1,1,0],[0,1,1,1,0],[0,1,1,1,0]];